NAME : amtsp
TYPE : ATSP
DIMENSION : 10
EDGE_WEIGHT_TYPE : EXPLICIT
EDGE_WEIGHT_FORMAT : FULL_MATRIX
EDGE_WEIGHT_SECTION
0 134 135 201051 201036 201846 202460 201936 201856 202267 
0 0 107 501 1166 1671 2047 1093 937 1111 
0 107 0 302 626 1143 1335 882 735 899 
0 501 302 0 526 1037 1119 685 435 647 
0 1166 626 526 0 515 724 515 717 1125 
0 1671 1143 1037 515 0 500 707 1118 2029 
0 2047 1335 1119 724 500 0 500 1000 1500 
0 1093 882 685 515 707 500 0 500 1000 
0 937 735 435 717 1118 1000 500 0 500 
0 1111 899 647 1125 2029 1500 1000 500 0 
